\ Model subproblem_model
\ LP format - for model browsing. Use MPS format to capture full model detail.
Maximize
  _eta
Subject To
 R0: _z[9] + _z[7] <= 1
 R1: _z[9] + _z[7] <= 1
 R2: _z[9] + _z[6] + _z[1] <= 2
 R3: _z[9] + _z[6] + _z[2] <= 2
 R4: _z[9] + _z[6] + _z[3] <= 2
 R5: _z[9] + _z[6] + _z[5] <= 2
 R6: _z[9] + _z[6] + _z[8] <= 2
 R7: _z[9] + _z[2] + _z[1] <= 2
 R8: _z[9] + _z[2] + _z[4] <= 2
 R9: _z[9] + _z[2] + _z[5] <= 2
 R10: _z[9] + _z[6] + _z[2] <= 2
 R11: _z[9] + _z[2] + _z[10] <= 2
 R12: _z[9] + _z[10] + _z[1] <= 2
 R13: _z[9] + _z[2] + _z[10] <= 2
 R14: _z[9] + _z[10] + _z[3] <= 2
 R15: _z[9] + _z[10] + _z[5] <= 2
 R16: _z[9] + _z[10] + _z[8] <= 2
 R17: _z[9] + _z[2] + _z[5] <= 2
 R18: _z[9] + _z[5] + _z[3] <= 2
 R19: _z[9] + _z[5] + _z[4] <= 2
 R20: _z[9] + _z[6] + _z[5] <= 2
 R21: _z[9] + _z[5] + _z[8] <= 2
 R22: _z[9] + _z[10] + _z[5] <= 2
 R23: _z[9] + _z[2] + _z[1] <= 2
 R24: _z[9] + _z[1] + _z[3] <= 2
 R25: _z[9] + _z[1] + _z[4] <= 2
 R26: _z[9] + _z[6] + _z[1] <= 2
 R27: _z[9] + _z[1] + _z[8] <= 2
 R28: _z[9] + _z[10] + _z[1] <= 2
 R29: _z[9] + _z[1] + _z[4] <= 2
 R30: _z[9] + _z[2] + _z[4] <= 2
 R31: _z[9] + _z[4] + _z[3] <= 2
 R32: _z[9] + _z[5] + _z[4] <= 2
 R33: _z[9] + _z[4] + _z[8] <= 2
 R34: _z[9] + _z[1] + _z[8] <= 2
 R35: _z[9] + _z[4] + _z[8] <= 2
 R36: _z[9] + _z[5] + _z[8] <= 2
 R37: _z[9] + _z[6] + _z[8] <= 2
 R38: _z[9] + _z[10] + _z[8] <= 2
 R39: _z[9] + _z[1] + _z[3] <= 2
 R40: _z[9] + _z[4] + _z[3] <= 2
 R41: _z[9] + _z[5] + _z[3] <= 2
 R42: _z[9] + _z[6] + _z[3] <= 2
 R43: _z[9] + _z[10] + _z[3] <= 2
 R44: _z[9] + _z[1] + _z[7] <= 2
 R45: _z[9] + _z[3] + _z[7] <= 2
 R46: _z[9] + _z[4] + _z[7] <= 2
 R47: _z[9] + _z[6] + _z[7] <= 2
 R48: _z[9] + _z[8] + _z[7] <= 2
 R49: _z[9] + _z[10] + _z[7] <= 2
 R50: _z[9] + _z[6] + _z[1] <= 2
 R51: _z[9] + _z[6] + _z[2] <= 2
 R52: _z[9] + _z[6] + _z[3] <= 2
 R53: _z[9] + _z[6] + _z[4] <= 2
 R54: _z[9] + _z[6] + _z[5] <= 2
 R55: _z[9] + _z[6] + _z[8] <= 2
 R56: _z[9] + _z[6] + _z[10] <= 2
 R57: _z[6] + _z[2] + _z[3] <= 2
 R58: _z[6] + _z[2] + _z[4] <= 2
 R59: _z[6] + _z[2] + _z[7] <= 2
 R60: _z[6] + _z[2] + _z[8] <= 2
 R61: _z[9] + _z[6] + _z[2] <= 2
 R62: _z[6] + _z[2] + _z[10] <= 2
 R63: _z[6] + _z[10] + _z[1] <= 2
 R64: _z[6] + _z[2] + _z[10] <= 2
 R65: _z[6] + _z[10] + _z[5] <= 2
 R66: _z[6] + _z[5] + _z[3] <= 2
 R67: _z[6] + _z[5] + _z[4] <= 2
 R68: _z[6] + _z[5] + _z[7] <= 2
 R69: _z[6] + _z[5] + _z[8] <= 2
 R70: _z[9] + _z[6] + _z[5] <= 2
 R71: _z[6] + _z[10] + _z[5] <= 2
 R72: _z[6] + _z[1] + _z[3] <= 2
 R73: _z[6] + _z[1] + _z[4] <= 2
 R74: _z[6] + _z[1] + _z[7] <= 2
 R75: _z[6] + _z[1] + _z[8] <= 2
 R76: _z[9] + _z[6] + _z[1] <= 2
 R77: _z[6] + _z[10] + _z[1] <= 2
 R78: _z[6] + _z[1] + _z[4] <= 2
 R79: _z[6] + _z[2] + _z[4] <= 2
 R80: _z[6] + _z[4] + _z[3] <= 2
 R81: _z[6] + _z[5] + _z[4] <= 2
 R82: _z[6] + _z[4] + _z[7] <= 2
 R83: _z[6] + _z[4] + _z[8] <= 2
 R84: _z[6] + _z[1] + _z[8] <= 2
 R85: _z[6] + _z[2] + _z[8] <= 2
 R86: _z[6] + _z[4] + _z[8] <= 2
 R87: _z[6] + _z[5] + _z[8] <= 2
 R88: _z[9] + _z[6] + _z[8] <= 2
 R89: _z[6] + _z[1] + _z[3] <= 2
 R90: _z[6] + _z[2] + _z[3] <= 2
 R91: _z[6] + _z[4] + _z[3] <= 2
 R92: _z[6] + _z[5] + _z[3] <= 2
 R93: _z[6] + _z[3] + _z[7] <= 2
 R94: _z[9] + _z[6] + _z[3] <= 2
 R95: _z[6] + _z[1] + _z[7] <= 2
 R96: _z[6] + _z[2] + _z[7] <= 2
 R97: _z[6] + _z[3] + _z[7] <= 2
 R98: _z[6] + _z[4] + _z[7] <= 2
 R99: _z[6] + _z[5] + _z[7] <= 2
 R100: _z[9] + _z[2] + _z[1] <= 2
 R101: _z[9] + _z[2] + _z[4] <= 2
 R102: _z[9] + _z[2] + _z[5] <= 2
 R103: _z[9] + _z[6] + _z[2] <= 2
 R104: _z[9] + _z[2] + _z[10] <= 2
 R105: _z[6] + _z[2] + _z[3] <= 2
 R106: _z[6] + _z[2] + _z[4] <= 2
 R107: _z[6] + _z[2] + _z[7] <= 2
 R108: _z[6] + _z[2] + _z[8] <= 2
 R109: _z[9] + _z[6] + _z[2] <= 2
 R110: _z[6] + _z[2] + _z[10] <= 2
 R111: _z[2] + _z[10] + _z[3] <= 2
 R112: _z[6] + _z[2] + _z[10] <= 2
 R113: _z[2] + _z[10] + _z[7] <= 2
 R114: _z[2] + _z[10] + _z[8] <= 2
 R115: _z[9] + _z[2] + _z[10] <= 2
 R116: _z[2] + _z[5] + _z[3] <= 2
 R117: _z[2] + _z[5] + _z[4] <= 2
 R118: _z[2] + _z[5] + _z[7] <= 2
 R119: _z[2] + _z[5] + _z[8] <= 2
 R120: _z[9] + _z[2] + _z[5] <= 2
 R121: _z[2] + _z[1] + _z[3] <= 2
 R122: _z[2] + _z[1] + _z[4] <= 2
 R123: _z[2] + _z[1] + _z[7] <= 2
 R124: _z[2] + _z[1] + _z[8] <= 2
 R125: _z[9] + _z[2] + _z[1] <= 2
 R126: _z[2] + _z[1] + _z[4] <= 2
 R127: _z[2] + _z[4] + _z[3] <= 2
 R128: _z[2] + _z[5] + _z[4] <= 2
 R129: _z[6] + _z[2] + _z[4] <= 2
 R130: _z[2] + _z[4] + _z[7] <= 2
 R131: _z[2] + _z[4] + _z[8] <= 2
 R132: _z[9] + _z[2] + _z[4] <= 2
 R133: _z[2] + _z[1] + _z[8] <= 2
 R134: _z[2] + _z[4] + _z[8] <= 2
 R135: _z[2] + _z[5] + _z[8] <= 2
 R136: _z[6] + _z[2] + _z[8] <= 2
 R137: _z[2] + _z[8] + _z[7] <= 2
 R138: _z[2] + _z[10] + _z[8] <= 2
 R139: _z[2] + _z[1] + _z[3] <= 2
 R140: _z[2] + _z[4] + _z[3] <= 2
 R141: _z[2] + _z[5] + _z[3] <= 2
 R142: _z[6] + _z[2] + _z[3] <= 2
 R143: _z[2] + _z[3] + _z[7] <= 2
 R144: _z[2] + _z[10] + _z[3] <= 2
 R145: _z[2] + _z[1] + _z[7] <= 2
 R146: _z[2] + _z[3] + _z[7] <= 2
 R147: _z[2] + _z[4] + _z[7] <= 2
 R148: _z[2] + _z[5] + _z[7] <= 2
 R149: _z[6] + _z[2] + _z[7] <= 2
 R150: _z[2] + _z[8] + _z[7] <= 2
 R151: _z[2] + _z[10] + _z[7] <= 2
 R152: _z[9] + _z[10] + _z[1] <= 2
 R153: _z[9] + _z[2] + _z[10] <= 2
 R154: _z[9] + _z[10] + _z[3] <= 2
 R155: _z[9] + _z[10] + _z[5] <= 2
 R156: _z[9] + _z[10] + _z[8] <= 2
 R157: _z[6] + _z[10] + _z[1] <= 2
 R158: _z[6] + _z[2] + _z[10] <= 2
 R159: _z[6] + _z[10] + _z[4] <= 2
 R160: _z[6] + _z[10] + _z[5] <= 2
 R161: _z[6] + _z[10] + _z[7] <= 2
 R162: _z[6] + _z[10] + _z[8] <= 2
 R163: _z[9] + _z[6] + _z[10] <= 2
 R164: _z[2] + _z[10] + _z[1] <= 2
 R165: _z[2] + _z[10] + _z[3] <= 2
 R166: _z[2] + _z[10] + _z[4] <= 2
 R167: _z[6] + _z[2] + _z[10] <= 2
 R168: _z[2] + _z[10] + _z[7] <= 2
 R169: _z[2] + _z[10] + _z[8] <= 2
 R170: _z[9] + _z[2] + _z[10] <= 2
 R171: _z[10] + _z[5] + _z[3] <= 2
 R172: _z[10] + _z[5] + _z[4] <= 2
 R173: _z[6] + _z[10] + _z[5] <= 2
 R174: _z[10] + _z[5] + _z[7] <= 2
 R175: _z[10] + _z[5] + _z[8] <= 2
 R176: _z[9] + _z[10] + _z[5] <= 2
 R177: _z[10] + _z[1] + _z[3] <= 2
 R178: _z[10] + _z[1] + _z[4] <= 2
 R179: _z[6] + _z[10] + _z[1] <= 2
 R180: _z[10] + _z[1] + _z[7] <= 2
 R181: _z[10] + _z[1] + _z[8] <= 2
 R182: _z[9] + _z[10] + _z[1] <= 2
 R183: _z[10] + _z[1] + _z[4] <= 2
 R184: _z[10] + _z[4] + _z[3] <= 2
 R185: _z[10] + _z[5] + _z[4] <= 2
 R186: _z[10] + _z[4] + _z[7] <= 2
 R187: _z[10] + _z[4] + _z[8] <= 2
 R188: _z[10] + _z[1] + _z[8] <= 2
 R189: _z[2] + _z[10] + _z[8] <= 2
 R190: _z[10] + _z[8] + _z[3] <= 2
 R191: _z[10] + _z[4] + _z[8] <= 2
 R192: _z[10] + _z[5] + _z[8] <= 2
 R193: _z[9] + _z[10] + _z[8] <= 2
 R194: _z[10] + _z[1] + _z[3] <= 2
 R195: _z[2] + _z[10] + _z[3] <= 2
 R196: _z[10] + _z[4] + _z[3] <= 2
 R197: _z[10] + _z[5] + _z[3] <= 2
 R198: _z[10] + _z[3] + _z[7] <= 2
 R199: _z[10] + _z[8] + _z[3] <= 2
 R200: _z[9] + _z[10] + _z[3] <= 2
 R201: _z[10] + _z[1] + _z[7] <= 2
 R202: _z[2] + _z[10] + _z[7] <= 2
 R203: _z[10] + _z[3] + _z[7] <= 2
 R204: _z[10] + _z[4] + _z[7] <= 2
 R205: _z[10] + _z[5] + _z[7] <= 2
 R206: _z[9] + _z[5] + _z[1] <= 2
 R207: _z[9] + _z[2] + _z[5] <= 2
 R208: _z[9] + _z[5] + _z[3] <= 2
 R209: _z[9] + _z[5] + _z[4] <= 2
 R210: _z[9] + _z[6] + _z[5] <= 2
 R211: _z[9] + _z[5] + _z[8] <= 2
 R212: _z[9] + _z[10] + _z[5] <= 2
 R213: _z[6] + _z[5] + _z[3] <= 2
 R214: _z[6] + _z[5] + _z[4] <= 2
 R215: _z[6] + _z[5] + _z[7] <= 2
 R216: _z[6] + _z[5] + _z[8] <= 2
 R217: _z[9] + _z[6] + _z[5] <= 2
 R218: _z[6] + _z[10] + _z[5] <= 2
 R219: _z[2] + _z[5] + _z[3] <= 2
 R220: _z[2] + _z[5] + _z[4] <= 2
 R221: _z[2] + _z[5] + _z[7] <= 2
 R222: _z[2] + _z[5] + _z[8] <= 2
 R223: _z[9] + _z[2] + _z[5] <= 2
 R224: _z[10] + _z[5] + _z[1] <= 2
 R225: _z[10] + _z[5] + _z[3] <= 2
 R226: _z[10] + _z[5] + _z[4] <= 2
 R227: _z[6] + _z[10] + _z[5] <= 2
 R228: _z[10] + _z[5] + _z[7] <= 2
 R229: _z[10] + _z[5] + _z[8] <= 2
 R230: _z[9] + _z[10] + _z[5] <= 2
 R231: _z[5] + _z[1] + _z[3] <= 2
 R232: _z[5] + _z[1] + _z[4] <= 2
 R233: _z[5] + _z[1] + _z[7] <= 2
 R234: _z[5] + _z[1] + _z[8] <= 2
 R235: _z[5] + _z[1] + _z[4] <= 2
 R236: _z[2] + _z[5] + _z[4] <= 2
 R237: _z[5] + _z[4] + _z[3] <= 2
 R238: _z[6] + _z[5] + _z[4] <= 2
 R239: _z[5] + _z[4] + _z[7] <= 2
 R240: _z[9] + _z[5] + _z[4] <= 2
 R241: _z[10] + _z[5] + _z[4] <= 2
 R242: _z[5] + _z[1] + _z[8] <= 2
 R243: _z[2] + _z[5] + _z[8] <= 2
 R244: _z[6] + _z[5] + _z[8] <= 2
 R245: _z[5] + _z[8] + _z[7] <= 2
 R246: _z[9] + _z[5] + _z[8] <= 2
 R247: _z[10] + _z[5] + _z[8] <= 2
 R248: _z[5] + _z[1] + _z[3] <= 2
 R249: _z[2] + _z[5] + _z[3] <= 2
 R250: _z[5] + _z[4] + _z[3] <= 2
 R251: _z[6] + _z[5] + _z[3] <= 2
 R252: _z[5] + _z[3] + _z[7] <= 2
 R253: _z[9] + _z[5] + _z[3] <= 2
 R254: _z[10] + _z[5] + _z[3] <= 2
 R255: _z[5] + _z[1] + _z[7] <= 2
 R256: _z[2] + _z[5] + _z[7] <= 2
 R257: _z[5] + _z[3] + _z[7] <= 2
 R258: _z[5] + _z[4] + _z[7] <= 2
 R259: _z[6] + _z[5] + _z[7] <= 2
 R260: _z[5] + _z[8] + _z[7] <= 2
 R261: _z[10] + _z[5] + _z[7] <= 2
 R262: _z[9] + _z[2] + _z[1] <= 2
 R263: _z[9] + _z[1] + _z[3] <= 2
 R264: _z[9] + _z[1] + _z[4] <= 2
 R265: _z[9] + _z[6] + _z[1] <= 2
 R266: _z[9] + _z[1] + _z[8] <= 2
 R267: _z[9] + _z[10] + _z[1] <= 2
 R268: _z[6] + _z[1] + _z[3] <= 2
 R269: _z[6] + _z[1] + _z[4] <= 2
 R270: _z[6] + _z[1] + _z[7] <= 2
 R271: _z[6] + _z[1] + _z[8] <= 2
 R272: _z[9] + _z[6] + _z[1] <= 2
 R273: _z[6] + _z[10] + _z[1] <= 2
 R274: _z[2] + _z[1] + _z[3] <= 2
 R275: _z[2] + _z[1] + _z[4] <= 2
 R276: _z[2] + _z[1] + _z[7] <= 2
 R277: _z[2] + _z[1] + _z[8] <= 2
 R278: _z[9] + _z[2] + _z[1] <= 2
 R279: _z[2] + _z[10] + _z[1] <= 2
 R280: _z[10] + _z[1] + _z[3] <= 2
 R281: _z[10] + _z[1] + _z[4] <= 2
 R282: _z[6] + _z[10] + _z[1] <= 2
 R283: _z[10] + _z[1] + _z[7] <= 2
 R284: _z[10] + _z[1] + _z[8] <= 2
 R285: _z[9] + _z[10] + _z[1] <= 2
 R286: _z[5] + _z[1] + _z[3] <= 2
 R287: _z[5] + _z[1] + _z[4] <= 2
 R288: _z[5] + _z[1] + _z[7] <= 2
 R289: _z[5] + _z[1] + _z[8] <= 2
 R290: _z[9] + _z[5] + _z[1] <= 2
 R291: _z[10] + _z[5] + _z[1] <= 2
 R292: _z[2] + _z[1] + _z[4] <= 2
 R293: _z[1] + _z[4] + _z[3] <= 2
 R294: _z[5] + _z[1] + _z[4] <= 2
 R295: _z[6] + _z[1] + _z[4] <= 2
 R296: _z[1] + _z[4] + _z[7] <= 2
 R297: _z[9] + _z[1] + _z[4] <= 2
 R298: _z[10] + _z[1] + _z[4] <= 2
 R299: _z[2] + _z[1] + _z[8] <= 2
 R300: _z[1] + _z[8] + _z[3] <= 2
 R301: _z[5] + _z[1] + _z[8] <= 2
 R302: _z[6] + _z[1] + _z[8] <= 2
 R303: _z[1] + _z[8] + _z[7] <= 2
 R304: _z[9] + _z[1] + _z[8] <= 2
 R305: _z[10] + _z[1] + _z[8] <= 2
 R306: _z[2] + _z[1] + _z[3] <= 2
 R307: _z[1] + _z[4] + _z[3] <= 2
 R308: _z[5] + _z[1] + _z[3] <= 2
 R309: _z[6] + _z[1] + _z[3] <= 2
 R310: _z[1] + _z[3] + _z[7] <= 2
 R311: _z[1] + _z[8] + _z[3] <= 2
 R312: _z[9] + _z[1] + _z[3] <= 2
 R313: _z[10] + _z[1] + _z[3] <= 2
 R314: _z[2] + _z[1] + _z[7] <= 2
 R315: _z[1] + _z[3] + _z[7] <= 2
 R316: _z[1] + _z[4] + _z[7] <= 2
 R317: _z[5] + _z[1] + _z[7] <= 2
 R318: _z[6] + _z[1] + _z[7] <= 2
 R319: _z[1] + _z[8] + _z[7] <= 2
 R320: _z[10] + _z[1] + _z[7] <= 2
 R321: _z[9] + _z[1] + _z[4] <= 2
 R322: _z[9] + _z[2] + _z[4] <= 2
 R323: _z[9] + _z[4] + _z[3] <= 2
 R324: _z[9] + _z[5] + _z[4] <= 2
 R325: _z[9] + _z[4] + _z[8] <= 2
 R326: _z[6] + _z[1] + _z[4] <= 2
 R327: _z[6] + _z[2] + _z[4] <= 2
 R328: _z[6] + _z[4] + _z[3] <= 2
 R329: _z[6] + _z[5] + _z[4] <= 2
 R330: _z[6] + _z[4] + _z[7] <= 2
 R331: _z[6] + _z[4] + _z[8] <= 2
 R332: _z[9] + _z[6] + _z[4] <= 2
 R333: _z[2] + _z[1] + _z[4] <= 2
 R334: _z[2] + _z[4] + _z[3] <= 2
 R335: _z[2] + _z[5] + _z[4] <= 2
 R336: _z[6] + _z[2] + _z[4] <= 2
 R337: _z[2] + _z[4] + _z[7] <= 2
 R338: _z[2] + _z[4] + _z[8] <= 2
 R339: _z[9] + _z[2] + _z[4] <= 2
 R340: _z[10] + _z[1] + _z[4] <= 2
 R341: _z[2] + _z[10] + _z[4] <= 2
 R342: _z[10] + _z[4] + _z[3] <= 2
 R343: _z[10] + _z[5] + _z[4] <= 2
 R344: _z[6] + _z[10] + _z[4] <= 2
 R345: _z[10] + _z[4] + _z[7] <= 2
 R346: _z[10] + _z[4] + _z[8] <= 2
 R347: _z[5] + _z[1] + _z[4] <= 2
 R348: _z[2] + _z[5] + _z[4] <= 2
 R349: _z[5] + _z[4] + _z[3] <= 2
 R350: _z[6] + _z[5] + _z[4] <= 2
 R351: _z[5] + _z[4] + _z[7] <= 2
 R352: _z[9] + _z[5] + _z[4] <= 2
 R353: _z[10] + _z[5] + _z[4] <= 2
 R354: _z[2] + _z[1] + _z[4] <= 2
 R355: _z[1] + _z[4] + _z[3] <= 2
 R356: _z[5] + _z[1] + _z[4] <= 2
 R357: _z[6] + _z[1] + _z[4] <= 2
 R358: _z[1] + _z[4] + _z[7] <= 2
 R359: _z[9] + _z[1] + _z[4] <= 2
 R360: _z[10] + _z[1] + _z[4] <= 2
 R361: _z[2] + _z[4] + _z[8] <= 2
 R362: _z[4] + _z[8] + _z[3] <= 2
 R363: _z[6] + _z[4] + _z[8] <= 2
 R364: _z[4] + _z[8] + _z[7] <= 2
 R365: _z[9] + _z[4] + _z[8] <= 2
 R366: _z[10] + _z[4] + _z[8] <= 2
 R367: _z[1] + _z[4] + _z[3] <= 2
 R368: _z[2] + _z[4] + _z[3] <= 2
 R369: _z[5] + _z[4] + _z[3] <= 2
 R370: _z[6] + _z[4] + _z[3] <= 2
 R371: _z[4] + _z[8] + _z[3] <= 2
 R372: _z[9] + _z[4] + _z[3] <= 2
 R373: _z[10] + _z[4] + _z[3] <= 2
 R374: _z[1] + _z[4] + _z[7] <= 2
 R375: _z[2] + _z[4] + _z[7] <= 2
 R376: _z[5] + _z[4] + _z[7] <= 2
 R377: _z[6] + _z[4] + _z[7] <= 2
 R378: _z[4] + _z[8] + _z[7] <= 2
 R379: _z[10] + _z[4] + _z[7] <= 2
 R380: _z[9] + _z[1] + _z[8] <= 2
 R381: _z[9] + _z[4] + _z[8] <= 2
 R382: _z[9] + _z[5] + _z[8] <= 2
 R383: _z[9] + _z[6] + _z[8] <= 2
 R384: _z[9] + _z[10] + _z[8] <= 2
 R385: _z[6] + _z[1] + _z[8] <= 2
 R386: _z[6] + _z[2] + _z[8] <= 2
 R387: _z[6] + _z[8] + _z[3] <= 2
 R388: _z[6] + _z[4] + _z[8] <= 2
 R389: _z[6] + _z[5] + _z[8] <= 2
 R390: _z[9] + _z[6] + _z[8] <= 2
 R391: _z[2] + _z[1] + _z[8] <= 2
 R392: _z[2] + _z[4] + _z[8] <= 2
 R393: _z[2] + _z[5] + _z[8] <= 2
 R394: _z[6] + _z[2] + _z[8] <= 2
 R395: _z[2] + _z[8] + _z[7] <= 2
 R396: _z[2] + _z[10] + _z[8] <= 2
 R397: _z[10] + _z[1] + _z[8] <= 2
 R398: _z[2] + _z[10] + _z[8] <= 2
 R399: _z[10] + _z[8] + _z[3] <= 2
 R400: _z[10] + _z[4] + _z[8] <= 2
 R401: _z[10] + _z[5] + _z[8] <= 2
 R402: _z[6] + _z[10] + _z[8] <= 2
 R403: _z[9] + _z[10] + _z[8] <= 2
 R404: _z[5] + _z[1] + _z[8] <= 2
 R405: _z[2] + _z[5] + _z[8] <= 2
 R406: _z[5] + _z[8] + _z[3] <= 2
 R407: _z[5] + _z[4] + _z[8] <= 2
 R408: _z[6] + _z[5] + _z[8] <= 2
 R409: _z[5] + _z[8] + _z[7] <= 2
 R410: _z[9] + _z[5] + _z[8] <= 2
 R411: _z[10] + _z[5] + _z[8] <= 2
 R412: _z[2] + _z[1] + _z[8] <= 2
 R413: _z[1] + _z[8] + _z[3] <= 2
 R414: _z[5] + _z[1] + _z[8] <= 2
 R415: _z[6] + _z[1] + _z[8] <= 2
 R416: _z[1] + _z[8] + _z[7] <= 2
 R417: _z[9] + _z[1] + _z[8] <= 2
 R418: _z[10] + _z[1] + _z[8] <= 2
 R419: _z[2] + _z[4] + _z[8] <= 2
 R420: _z[4] + _z[8] + _z[3] <= 2
 R421: _z[6] + _z[4] + _z[8] <= 2
 R422: _z[4] + _z[8] + _z[7] <= 2
 R423: _z[9] + _z[4] + _z[8] <= 2
 R424: _z[10] + _z[4] + _z[8] <= 2
 R425: _z[1] + _z[8] + _z[3] <= 2
 R426: _z[4] + _z[8] + _z[3] <= 2
 R427: _z[8] + _z[3] + _z[7] <= 2
 R428: _z[10] + _z[8] + _z[3] <= 2
 R429: _z[1] + _z[8] + _z[7] <= 2
 R430: _z[2] + _z[8] + _z[7] <= 2
 R431: _z[8] + _z[3] + _z[7] <= 2
 R432: _z[4] + _z[8] + _z[7] <= 2
 R433: _z[5] + _z[8] + _z[7] <= 2
 R434: _z[9] + _z[1] + _z[3] <= 2
 R435: _z[9] + _z[4] + _z[3] <= 2
 R436: _z[9] + _z[5] + _z[3] <= 2
 R437: _z[9] + _z[6] + _z[3] <= 2
 R438: _z[9] + _z[10] + _z[3] <= 2
 R439: _z[6] + _z[1] + _z[3] <= 2
 R440: _z[6] + _z[2] + _z[3] <= 2
 R441: _z[6] + _z[4] + _z[3] <= 2
 R442: _z[6] + _z[5] + _z[3] <= 2
 R443: _z[6] + _z[3] + _z[7] <= 2
 R444: _z[9] + _z[6] + _z[3] <= 2
 R445: _z[2] + _z[1] + _z[3] <= 2
 R446: _z[2] + _z[4] + _z[3] <= 2
 R447: _z[2] + _z[5] + _z[3] <= 2
 R448: _z[6] + _z[2] + _z[3] <= 2
 R449: _z[2] + _z[3] + _z[7] <= 2
 R450: _z[2] + _z[10] + _z[3] <= 2
 R451: _z[10] + _z[1] + _z[3] <= 2
 R452: _z[2] + _z[10] + _z[3] <= 2
 R453: _z[10] + _z[4] + _z[3] <= 2
 R454: _z[10] + _z[5] + _z[3] <= 2
 R455: _z[10] + _z[3] + _z[7] <= 2
 R456: _z[10] + _z[8] + _z[3] <= 2
 R457: _z[9] + _z[10] + _z[3] <= 2
 R458: _z[5] + _z[1] + _z[3] <= 2
 R459: _z[2] + _z[5] + _z[3] <= 2
 R460: _z[5] + _z[4] + _z[3] <= 2
 R461: _z[6] + _z[5] + _z[3] <= 2
 R462: _z[5] + _z[3] + _z[7] <= 2
 R463: _z[9] + _z[5] + _z[3] <= 2
 R464: _z[10] + _z[5] + _z[3] <= 2
 R465: _z[2] + _z[1] + _z[3] <= 2
 R466: _z[1] + _z[4] + _z[3] <= 2
 R467: _z[5] + _z[1] + _z[3] <= 2
 R468: _z[6] + _z[1] + _z[3] <= 2
 R469: _z[1] + _z[3] + _z[7] <= 2
 R470: _z[1] + _z[8] + _z[3] <= 2
 R471: _z[9] + _z[1] + _z[3] <= 2
 R472: _z[10] + _z[1] + _z[3] <= 2
 R473: _z[1] + _z[4] + _z[3] <= 2
 R474: _z[2] + _z[4] + _z[3] <= 2
 R475: _z[5] + _z[4] + _z[3] <= 2
 R476: _z[6] + _z[4] + _z[3] <= 2
 R477: _z[4] + _z[8] + _z[3] <= 2
 R478: _z[9] + _z[4] + _z[3] <= 2
 R479: _z[10] + _z[4] + _z[3] <= 2
 R480: _z[1] + _z[8] + _z[3] <= 2
 R481: _z[4] + _z[8] + _z[3] <= 2
 R482: _z[5] + _z[8] + _z[3] <= 2
 R483: _z[6] + _z[8] + _z[3] <= 2
 R484: _z[8] + _z[3] + _z[7] <= 2
 R485: _z[10] + _z[8] + _z[3] <= 2
 R486: _z[1] + _z[3] + _z[7] <= 2
 R487: _z[2] + _z[3] + _z[7] <= 2
 R488: _z[5] + _z[3] + _z[7] <= 2
 R489: _z[6] + _z[3] + _z[7] <= 2
 R490: _z[8] + _z[3] + _z[7] <= 2
 R491: _z[10] + _z[3] + _z[7] <= 2
 R492: _z[9] + _z[1] + _z[7] <= 2
 R493: _z[9] + _z[3] + _z[7] <= 2
 R494: _z[9] + _z[4] + _z[7] <= 2
 R495: _z[9] + _z[6] + _z[7] <= 2
 R496: _z[9] + _z[8] + _z[7] <= 2
 R497: _z[9] + _z[10] + _z[7] <= 2
 R498: _z[6] + _z[1] + _z[7] <= 2
 R499: _z[6] + _z[2] + _z[7] <= 2
 R500: _z[6] + _z[3] + _z[7] <= 2
 R501: _z[6] + _z[4] + _z[7] <= 2
 R502: _z[6] + _z[5] + _z[7] <= 2
 R503: _z[2] + _z[1] + _z[7] <= 2
 R504: _z[2] + _z[3] + _z[7] <= 2
 R505: _z[2] + _z[4] + _z[7] <= 2
 R506: _z[2] + _z[5] + _z[7] <= 2
 R507: _z[6] + _z[2] + _z[7] <= 2
 R508: _z[2] + _z[8] + _z[7] <= 2
 R509: _z[2] + _z[10] + _z[7] <= 2
 R510: _z[10] + _z[1] + _z[7] <= 2
 R511: _z[2] + _z[10] + _z[7] <= 2
 R512: _z[10] + _z[3] + _z[7] <= 2
 R513: _z[10] + _z[4] + _z[7] <= 2
 R514: _z[10] + _z[5] + _z[7] <= 2
 R515: _z[6] + _z[10] + _z[7] <= 2
 R516: _z[5] + _z[1] + _z[7] <= 2
 R517: _z[2] + _z[5] + _z[7] <= 2
 R518: _z[5] + _z[3] + _z[7] <= 2
 R519: _z[5] + _z[4] + _z[7] <= 2
 R520: _z[6] + _z[5] + _z[7] <= 2
 R521: _z[5] + _z[8] + _z[7] <= 2
 R522: _z[10] + _z[5] + _z[7] <= 2
 R523: _z[2] + _z[1] + _z[7] <= 2
 R524: _z[1] + _z[3] + _z[7] <= 2
 R525: _z[1] + _z[4] + _z[7] <= 2
 R526: _z[5] + _z[1] + _z[7] <= 2
 R527: _z[6] + _z[1] + _z[7] <= 2
 R528: _z[1] + _z[8] + _z[7] <= 2
 R529: _z[10] + _z[1] + _z[7] <= 2
 R530: _z[1] + _z[4] + _z[7] <= 2
 R531: _z[2] + _z[4] + _z[7] <= 2
 R532: _z[5] + _z[4] + _z[7] <= 2
 R533: _z[6] + _z[4] + _z[7] <= 2
 R534: _z[4] + _z[8] + _z[7] <= 2
 R535: _z[10] + _z[4] + _z[7] <= 2
 R536: _z[1] + _z[8] + _z[7] <= 2
 R537: _z[2] + _z[8] + _z[7] <= 2
 R538: _z[8] + _z[3] + _z[7] <= 2
 R539: _z[4] + _z[8] + _z[7] <= 2
 R540: _z[5] + _z[8] + _z[7] <= 2
 R541: _z[1] + _z[3] + _z[7] <= 2
 R542: _z[2] + _z[3] + _z[7] <= 2
 R543: _z[5] + _z[3] + _z[7] <= 2
 R544: _z[6] + _z[3] + _z[7] <= 2
 R545: _z[8] + _z[3] + _z[7] <= 2
 R546: _z[10] + _z[3] + _z[7] <= 2
 R547: _eta - 4161 _z[9] - 3306 _z[6] - 6252 _z[2] - 5450 _z[10]
   - 7470 _z[5] - 2602 _z[1] - 5275 _z[4] - 8027 _z[8] - 4404 _z[3]
   - 2272 _z[7] <= 0
Bounds
 _eta free
Binaries
 _z[9] _z[6] _z[2] _z[10] _z[5] _z[1] _z[4] _z[8] _z[3] _z[7]
End
